Gurobi 9.1.2 (linux64) logging started Thu Mar  3 17:35:30 2022

Gurobi Optimizer version 9.1.2 build v9.1.2rc0 (linux64)
Thread count: 12 physical cores, 24 logical processors, using up to 1 threads
Optimize a model with 44740 rows, 44740 columns and 550635 nonzeros
Model fingerprint: 0xc5f02746
Model has 461881 quadratic objective terms
Coefficient statistics:
  Matrix range     [2e-04, 1e+00]
  Objective range  [8e-24, 1e-03]
  QObjective range [7e-07, 2e-05]
  Bounds range     [1e+00, 1e+00]
  RHS range        [2e+00, 2e+00]
Presolve removed 8441 rows and 8441 columns (presolve time = 6s) ...
Presolve removed 8441 rows and 8441 columns
Presolve time: 6.46s
Presolved: 36299 rows, 36299 columns, 509817 nonzeros
Presolved model has 372223 quadratic objective terms

Iteration    Objective       Primal Inf.    Dual Inf.      Time
       0    2.4092065e+01   0.000000e+00   6.443311e+02      7s
    4782    2.0466915e+01   0.000000e+00   7.437128e+02     12s
    6072    1.9236328e+01   0.000000e+00   5.186906e+02     17s
    8600    1.8777540e+01   0.000000e+00   1.323279e+03     23s
   11128    1.8777540e+01   0.000000e+00   3.529217e+03     29s
Warning: Markowitz tolerance tightened to 0.125
   13656    1.8777540e+01   0.000000e+00   2.224099e+04     39s
Warning: Markowitz tolerance tightened to 0.25
   16184    1.8777540e+01   0.000000e+00   3.882378e+04     54s
Warning: Markowitz tolerance tightened to 0.5
   18712    1.8777540e+01   0.000000e+00   1.241693e+05     70s
   21058    1.8070414e+01   0.000000e+00   1.886954e+03     87s
   22669    1.8069531e+01   0.000000e+00   1.159854e+03    106s
   24359    1.8070056e+01   0.000000e+00   1.003285e+03    121s
   25970    1.8069240e+01   0.000000e+00   1.472750e+03    136s
   27286    1.8069069e+01   0.000000e+00   1.713352e+03    159s
   28570    1.8068960e+01   0.000000e+00   1.549606e+03    181s
   30014    1.8068905e+01   0.000000e+00   1.419283e+03    201s
   31409    1.8068882e+01   0.000000e+00   1.131173e+03    219s
   32758    1.8068867e+01   0.000000e+00   2.021771e+03    239s
   34066    1.8068858e+01   0.000000e+00   1.454748e+03    260s
   35204    1.8068855e+01   0.000000e+00   2.248217e+03    285s
   36163    1.8071557e+01   0.000000e+00   2.182492e+03    311s
   37149    1.4240518e+01   0.000000e+00   3.330621e+02    343s
   38163    1.4240518e+01   0.000000e+00   1.096064e+03    375s
   39185    1.4240518e+01   0.000000e+00   9.942283e+02    398s
   40157    1.4240518e+01   0.000000e+00   8.888151e+02    420s
   41089    1.4240518e+01   0.000000e+00   1.184715e+03    444s
   42019    1.4240518e+01   0.000000e+00   1.277384e+03    468s
   42921    1.4240518e+01   0.000000e+00   1.053826e+03    492s
   43816    1.4240518e+01   0.000000e+00   7.300828e+02    516s
   44695    1.4240518e+01   0.000000e+00   2.565159e+03    540s
   45597    1.4240518e+01   0.000000e+00   1.132964e+03    562s
   46446    1.4240518e+01   0.000000e+00   6.045343e+02    586s
   47283    1.4240518e+01   0.000000e+00   1.171005e+03    612s
   48091    1.4240518e+01   0.000000e+00   1.161233e+03    636s
   48907    1.4240518e+01   0.000000e+00   1.355046e+03    661s
   49669    1.4240518e+01   0.000000e+00   1.449607e+03    689s
   50461    1.4240518e+01   0.000000e+00   1.170479e+03    714s
   51252    1.4240518e+01   0.000000e+00   8.676016e+02    744s
   52051    1.4240518e+01   0.000000e+00   1.982388e+03    769s
   52773    1.4240518e+01   0.000000e+00   1.383281e+03    810s
   53547    1.4240518e+01   0.000000e+00   1.190609e+03    839s
   54259    1.4240518e+01   0.000000e+00   1.577058e+03    865s
   54910    1.4240518e+01   0.000000e+00   9.422870e+02    896s
   55590    1.4240518e+01   0.000000e+00   9.268438e+02    923s
   56329    1.4240518e+01   0.000000e+00   2.012541e+03    950s
   57033    1.4240518e+01   0.000000e+00   2.296237e+03    981s
   57769    1.4240518e+01   0.000000e+00   1.387382e+03   1008s
   58463    1.4240518e+01   0.000000e+00   1.202659e+03   1035s
   59162    1.4240518e+01   0.000000e+00   9.105992e+02   1064s
   59855    1.4240518e+01   0.000000e+00   1.766520e+03   1096s
   60546    1.4240518e+01   0.000000e+00   9.351705e+02   1128s
   61245    1.4240518e+01   0.000000e+00   1.993090e+03   1156s
   61907    1.4240518e+01   0.000000e+00   1.531401e+03   1188s
   62527    1.4240518e+01   0.000000e+00   1.772269e+03   1220s
   63201    1.4240518e+01   0.000000e+00   2.185419e+03   1250s
   63879    1.4240518e+01   0.000000e+00   2.504490e+03   1282s
   64503    1.4240518e+01   0.000000e+00   1.993948e+03   1315s
   65167    1.4240518e+01   0.000000e+00   1.803149e+03   1346s
   65719    1.4240518e+01   0.000000e+00   2.933061e+03   1382s
   66322    1.4240518e+01   0.000000e+00   2.477570e+03   1413s
   66771    1.4240518e+01   0.000000e+00   3.893697e+03   1452s
   67310    1.4240518e+01   0.000000e+00   1.659026e+03   1492s
   67793    1.4240518e+01   0.000000e+00   4.293405e+03   1535s
   68314    1.4240518e+01   0.000000e+00   1.864680e+03   1576s
   68781    1.4240518e+01   0.000000e+00   4.399492e+03   1619s
   69279    1.4240518e+01   0.000000e+00   5.834298e+03   1662s
   69765    1.4240518e+01   0.000000e+00   6.881359e+03   1708s
   70256    1.4240518e+01   0.000000e+00   2.163249e+03   1751s
   70725    1.4240518e+01   0.000000e+00   5.731747e+03   1796s
   71229    1.4240518e+01   0.000000e+00   6.016318e+03   1840s
   71702    1.4240518e+01   0.000000e+00   2.845132e+03   1887s
   72173    1.4240518e+01   0.000000e+00   1.423192e+04   1932s
   72550    7.1377628e+00   0.000000e+00   0.000000e+00   1980s
   72553    7.2875468e+00   0.000000e+00   0.000000e+00   2089s

Solved in 72553 iterations and 2088.77 seconds
Optimal objective  7.287546830e+00
